coords = array2d(1..58, 1..2, [662, 654, 23, 341, 574, 127, 959, 523, 496, 708,
    384, 346, 864, 33, 178, 724, 40, 342, 487, 772, 823, 62, 537, 582,
    719, 555, 949, 283, 992, 630, 879, 567, 680, 261, 806, 701, 400,
    873, 674, 837, 816, 198, 890, 395, 240, 235, 815, 913, 899, 777,
    369, 344, 938, 329, 20, 479, 311, 165, 522, 706, 633, 986, 352,
    543, 91, 648, 274, 907, 379, 781, 924, 858, 441, 469, 633, 209,
    294, 432, 937, 25, 621, 971, 513, 738, 664, 632, 968, 378, 410,
    755, 914, 208, 42, 409, 386, 364, 250, 162, 599, 169, 660, 977,
    200, 290, 670, 77, 948, 881, 161, 171, 786, 16, 958, 514, 394,
    580]);

n = 58;

